-18452.0 -19255.0 
-18945.0 -18626.0 
-18945.0 -18626.0 
-18943.0 -18806.0 
-18908.0 -18878.0 
-18518.0 -19217.0 
-18518.0 -19217.0 
-18565.0 -19214.0 
-18943.0 -18806.0 
-18871.0 -18891.0 
-18677.0 -19125.0 
-18618.0 -19166.0 
-18720.0 -19113.0 
-18908.0 -18878.0 
-18616.0 -19196.0 
-18575.0 -19203.0 
-18665.0 -19152.0 
-18870.0 -18918.0 
-18644.0 -19164.0 
-18832.0 -18977.0 
-18690.0 -19120.0 
-18749.0 -19047.0 
-18811.0 -19003.0 
-18763.0 -19043.0 
-18858.0 -18944.0 
-18725.0 -19093.0 
-18841.0 -18947.0 
-18793.0 -19008.0 
-18597.0 -19201.0 
-18786.0 -19024.0 
-18773.0 -19033.0 
-18811.0 -19003.0 
-18737.0 -19086.0 
-18740.0 -19072.0 
-18644.0 -19164.0 
-18832.0 -18977.0 
-18665.0 -19152.0 
-18597.0 -19201.0 
-18834.0 -18960.0 
-18740.0 -19072.0 
-18864.0 -18928.0 
-18690.0 -19120.0 
-18786.0 -19024.0 
-18864.0 -18928.0 
-18799.0 -19006.0 
-18834.0 -18960.0 
-18749.0 -19047.0 
-18871.0 -18891.0 
-18720.0 -19113.0 
-18725.0 -19093.0 
-18841.0 -18947.0 
-18770.0 -19035.0 
-18770.0 -19035.0 
-18737.0 -19086.0 
-18858.0 -18944.0 
-18799.0 -19006.0 
-18616.0 -19196.0 
-18618.0 -19166.0 
-18740.0 -19072.0 
-18749.0 -19047.0 
-18740.0 -19072.0 
-18740.0 -19072.0 
-18740.0 -19072.0 
-18740.0 -19072.0 
-18740.0 -19072.0 
-18740.0 -19072.0 
-18740.0 -19072.0 
-18749.0 -19047.0 
-18740.0 -19072.0 
-18740.0 -19072.0 
-18740.0 -19072.0 
-18740.0 -19072.0 
-18740.0 -19072.0 
-18740.0 -19072.0 
-18740.0 -19072.0 
-18740.0 -19072.0 
-18740.0 -19072.0 
-18740.0 -19072.0 
-18740.0 -19072.0 
-18740.0 -19072.0 
-18740.0 -19072.0 
-18740.0 -19072.0 
-18740.0 -19072.0 
-18740.0 -19072.0 
-18740.0 -19072.0 
-18740.0 -19072.0 
-18740.0 -19072.0 
-18740.0 -19072.0 
-18740.0 -19072.0 
-18740.0 -19072.0 
-18740.0 -19072.0 
-18740.0 -19072.0 
-18740.0 -19072.0 
-18740.0 -19072.0 
-18740.0 -19072.0 
-18740.0 -19072.0 
-18740.0 -19072.0 
-18740.0 -19072.0 
-18740.0 -19072.0 
-18740.0 -19072.0 
